9 29 16 55 91 43 72 41 18 80 34 61 81 0 95 47 87 14 56 60 57 35 88 77 19 22 93 2 31 48 94 30 12 52 3 76 36 86 51 20 92 54 40 62 10 42 46 45 59 13 67 74 24 66 6 49 28 50 96 89 21 99 5 39 83 79 84 64 69 73 63 97 1 78 37 27 75 58 4 71 32 11 7 25 44 90 82 65 68 85 53 70 8 23 38 26 15 33 17 98